15943 17057 1682
15163 18837 1725
16974 13026 1396
13615 21385 1737
16330 15670 1647
16519 15481 1529
9174 23826 1581
16514 15486 1575
16832 13168 1535
13436 19564 1911
16771 13229 1567
13071 20929 1923
16790 14210 1517
10941 23059 1841
15226 17774 1790
14932 19068 1776
13699 21301 1654
14741 19259 1815
14290 18710 1867
9201 23799 1649
16954 13046 1424
16134 16866 1651
15931 16069 1711
12849 22151 1682
13293 21707 1779
10261 23739 1647
12595 21405 1913
12521 22479 1729
10521 23479 1762
10288 23712 1715
15890 16110 1716
11707 23293 1747
14064 19936 1877
15361 18639 1651
12446 22554 1810
17041 10959 1257
14755 18245 1829
12334 21666 1906
16125 15875 1680
